c bitvector 0: 1 2 3 4 5 6 7 8 9 10
c bitvector 1: 11 12 13 14 15 16 17 18 19 20
c bitvector 2: 21 22 23 24 25 26 27 28 29 30
c bitvector 3: 31 32 33 34 35 36 37 38 39 40
c bitvector 4: 41 42 43 44 45 46 47 48 49 50
c bitvector 5: 84 85 86 87 88 89 90 91 92 93
c bitvector 6: 94 95 96 97 98 99 100 101 102 103
c bitvector 7: 104 105 106 107 108 109 110 111 112 113
c bitvector 8: 114 115 116 117 118 119 120 121 122 123
c bitvector 9: 124 125 126 127 128 129 130 131 132 133
c bitvector 10:
c bitvector 11:
c bitvector 12:
c bitvector 13:
c bitvector 14:
c bitvector 15:
c bitvector 16:
c bitvector 17:
c bitvector 18:
c bitvector 19:
c bitvector 20:
c bitvector 21:
c bitvector 22:
p cnf 420 1555
-1 0
2 0
-3 0
4 0
-5 0
-6 0
-7 0
-8 0
-9 0
-10 0
-11 0
-12 0
-13 0
-14 0
-15 0
-16 0
-17 0
-18 0
-19 0
-20 0
-51 -21 11 0
-51 21 -11 0
51 21 11 0
51 -21 -11 0
-61 51 0
-52 -22 12 0
-52 22 -12 0
52 22 12 0
52 -22 -12 0
-61 52 0
-53 -23 13 0
-53 23 -13 0
53 23 13 0
53 -23 -13 0
-61 53 0
-54 -24 14 0
-54 24 -14 0
54 24 14 0
54 -24 -14 0
-61 54 0
-55 -25 15 0
-55 25 -15 0
55 25 15 0
55 -25 -15 0
-61 55 0
-56 -26 16 0
-56 26 -16 0
56 26 16 0
56 -26 -16 0
-61 56 0
-57 -27 17 0
-57 27 -17 0
57 27 17 0
57 -27 -17 0
-61 57 0
-58 -28 18 0
-58 28 -18 0
58 28 18 0
58 -28 -18 0
-61 58 0
-59 -29 19 0
-59 29 -19 0
59 29 19 0
59 -29 -19 0
-61 59 0
-60 -30 20 0
-60 30 -20 0
60 30 20 0
60 -30 -20 0
-61 60 0
-51 -52 -53 -54 -55 -56 -57 -58 -59 -60 61 0
-61 0
-62 -31 11 0
-62 31 -11 0
62 31 11 0
62 -31 -11 0
-72 62 0
-63 -32 12 0
-63 32 -12 0
63 32 12 0
63 -32 -12 0
-72 63 0
-64 -33 13 0
-64 33 -13 0
64 33 13 0
64 -33 -13 0
-72 64 0
-65 -34 14 0
-65 34 -14 0
65 34 14 0
65 -34 -14 0
-72 65 0
-66 -35 15 0
-66 35 -15 0
66 35 15 0
66 -35 -15 0
-72 66 0
-67 -36 16 0
-67 36 -16 0
67 36 16 0
67 -36 -16 0
-72 67 0
-68 -37 17 0
-68 37 -17 0
68 37 17 0
68 -37 -17 0
-72 68 0
-69 -38 18 0
-69 38 -18 0
69 38 18 0
69 -38 -18 0
-72 69 0
-70 -39 19 0
-70 39 -19 0
70 39 19 0
70 -39 -19 0
-72 70 0
-71 -40 20 0
-71 40 -20 0
71 40 20 0
71 -40 -20 0
-72 71 0
-62 -63 -64 -65 -66 -67 -68 -69 -70 -71 72 0
-72 0
-73 -21 31 0
-73 21 -31 0
73 21 31 0
73 -21 -31 0
-83 73 0
-74 -22 32 0
-74 22 -32 0
74 22 32 0
74 -22 -32 0
-83 74 0
-75 -23 33 0
-75 23 -33 0
75 23 33 0
75 -23 -33 0
-83 75 0
-76 -24 34 0
-76 24 -34 0
76 24 34 0
76 -24 -34 0
-83 76 0
-77 -25 35 0
-77 25 -35 0
77 25 35 0
77 -25 -35 0
-83 77 0
-78 -26 36 0
-78 26 -36 0
78 26 36 0
78 -26 -36 0
-83 78 0
-79 -27 37 0
-79 27 -37 0
79 27 37 0
79 -27 -37 0
-83 79 0
-80 -28 38 0
-80 28 -38 0
80 28 38 0
80 -28 -38 0
-83 80 0
-81 -29 39 0
-81 29 -39 0
81 29 39 0
81 -29 -39 0
-83 81 0
-82 -30 40 0
-82 30 -40 0
82 30 40 0
82 -30 -40 0
-83 82 0
-73 -74 -75 -76 -77 -78 -79 -80 -81 -82 83 0
-83 0
-134 0
-135 -1 1 0
-135 1 -1 0
135 1 1 0
135 -1 -1 0
-145 135 0
-136 -2 2 0
-136 2 -2 0
136 2 2 0
136 -2 -2 0
-145 136 0
-137 -3 3 0
-137 3 -3 0
137 3 3 0
137 -3 -3 0
-145 137 0
-138 -4 4 0
-138 4 -4 0
138 4 4 0
138 -4 -4 0
-145 138 0
-139 -5 5 0
-139 5 -5 0
139 5 5 0
139 -5 -5 0
-145 139 0
-140 -6 6 0
-140 6 -6 0
140 6 6 0
140 -6 -6 0
-145 140 0
-141 -7 7 0
-141 7 -7 0
141 7 7 0
141 -7 -7 0
-145 141 0
-142 -8 8 0
-142 8 -8 0
142 8 8 0
142 -8 -8 0
-145 142 0
-143 -9 9 0
-143 9 -9 0
143 9 9 0
143 -9 -9 0
-145 143 0
-144 -10 10 0
-144 10 -10 0
144 10 10 0
144 -10 -10 0
-145 144 0
-135 -136 -137 -138 -139 -140 -141 -142 -143 -144 145 0
-146 -21 21 0
-146 21 -21 0
146 21 21 0
146 -21 -21 0
-156 146 0
-147 -22 22 0
-147 22 -22 0
147 22 22 0
147 -22 -22 0
-156 147 0
-148 -23 23 0
-148 23 -23 0
148 23 23 0
148 -23 -23 0
-156 148 0
-149 -24 24 0
-149 24 -24 0
149 24 24 0
149 -24 -24 0
-156 149 0
-150 -25 25 0
-150 25 -25 0
150 25 25 0
150 -25 -25 0
-156 150 0
-151 -26 26 0
-151 26 -26 0
151 26 26 0
151 -26 -26 0
-156 151 0
-152 -27 27 0
-152 27 -27 0
152 27 27 0
152 -27 -27 0
-156 152 0
-153 -28 28 0
-153 28 -28 0
153 28 28 0
153 -28 -28 0
-156 153 0
-154 -29 29 0
-154 29 -29 0
154 29 29 0
154 -29 -29 0
-156 154 0
-155 -30 30 0
-155 30 -30 0
155 30 30 0
155 -30 -30 0
-156 155 0
-146 -147 -148 -149 -150 -151 -152 -153 -154 -155 156 0
-145 134 156 0
-134 10 0
-145 10 0
-10 134 145 0
-157 -21 1 0
-157 21 -1 0
157 21 1 0
157 -21 -1 0
-167 157 0
-158 -22 2 0
-158 22 -2 0
158 22 2 0
158 -22 -2 0
-167 158 0
-159 -23 3 0
-159 23 -3 0
159 23 3 0
159 -23 -3 0
-167 159 0
-160 -24 4 0
-160 24 -4 0
160 24 4 0
160 -24 -4 0
-167 160 0
-161 -25 5 0
-161 25 -5 0
161 25 5 0
161 -25 -5 0
-167 161 0
-162 -26 6 0
-162 26 -6 0
162 26 6 0
162 -26 -6 0
-167 162 0
-163 -27 7 0
-163 27 -7 0
163 27 7 0
163 -27 -7 0
-167 163 0
-164 -28 8 0
-164 28 -8 0
164 28 8 0
164 -28 -8 0
-167 164 0
-165 -29 9 0
-165 29 -9 0
165 29 9 0
165 -29 -9 0
-167 165 0
-166 -30 10 0
-166 30 -10 0
166 30 10 0
166 -30 -10 0
-167 166 0
-157 -158 -159 -160 -161 -162 -163 -164 -165 -166 167 0
-168 -31 31 0
-168 31 -31 0
168 31 31 0
168 -31 -31 0
-178 168 0
-169 -32 32 0
-169 32 -32 0
169 32 32 0
169 -32 -32 0
-178 169 0
-170 -33 33 0
-170 33 -33 0
170 33 33 0
170 -33 -33 0
-178 170 0
-171 -34 34 0
-171 34 -34 0
171 34 34 0
171 -34 -34 0
-178 171 0
-172 -35 35 0
-172 35 -35 0
172 35 35 0
172 -35 -35 0
-178 172 0
-173 -36 36 0
-173 36 -36 0
173 36 36 0
173 -36 -36 0
-178 173 0
-174 -37 37 0
-174 37 -37 0
174 37 37 0
174 -37 -37 0
-178 174 0
-175 -38 38 0
-175 38 -38 0
175 38 38 0
175 -38 -38 0
-178 175 0
-176 -39 39 0
-176 39 -39 0
176 39 39 0
176 -39 -39 0
-178 176 0
-177 -40 40 0
-177 40 -40 0
177 40 40 0
177 -40 -40 0
-178 177 0
-168 -169 -170 -171 -172 -173 -174 -175 -176 -177 178 0
-167 134 178 0
-134 11 0
-167 11 0
-11 134 167 0
-179 -1 1 0
-179 1 -1 0
179 1 1 0
179 -1 -1 0
-189 179 0
-180 -2 2 0
-180 2 -2 0
180 2 2 0
180 -2 -2 0
-189 180 0
-181 -3 3 0
-181 3 -3 0
181 3 3 0
181 -3 -3 0
-189 181 0
-182 -4 4 0
-182 4 -4 0
182 4 4 0
182 -4 -4 0
-189 182 0
-183 -5 5 0
-183 5 -5 0
183 5 5 0
183 -5 -5 0
-189 183 0
-184 -6 6 0
-184 6 -6 0
184 6 6 0
184 -6 -6 0
-189 184 0
-185 -7 7 0
-185 7 -7 0
185 7 7 0
185 -7 -7 0
-189 185 0
-186 -8 8 0
-186 8 -8 0
186 8 8 0
186 -8 -8 0
-189 186 0
-187 -9 9 0
-187 9 -9 0
187 9 9 0
187 -9 -9 0
-189 187 0
-188 -10 10 0
-188 10 -10 0
188 10 10 0
188 -10 -10 0
-189 188 0
-179 -180 -181 -182 -183 -184 -185 -186 -187 -188 189 0
-190 -21 31 0
-190 21 -31 0
190 21 31 0
190 -21 -31 0
-200 190 0
-191 -22 32 0
-191 22 -32 0
191 22 32 0
191 -22 -32 0
-200 191 0
-192 -23 33 0
-192 23 -33 0
192 23 33 0
192 -23 -33 0
-200 192 0
-193 -24 34 0
-193 24 -34 0
193 24 34 0
193 -24 -34 0
-200 193 0
-194 -25 35 0
-194 25 -35 0
194 25 35 0
194 -25 -35 0
-200 194 0
-195 -26 36 0
-195 26 -36 0
195 26 36 0
195 -26 -36 0
-200 195 0
-196 -27 37 0
-196 27 -37 0
196 27 37 0
196 -27 -37 0
-200 196 0
-197 -28 38 0
-197 28 -38 0
197 28 38 0
197 -28 -38 0
-200 197 0
-198 -29 39 0
-198 29 -39 0
198 29 39 0
198 -29 -39 0
-200 198 0
-199 -30 40 0
-199 30 -40 0
199 30 40 0
199 -30 -40 0
-200 199 0
-190 -191 -192 -193 -194 -195 -196 -197 -198 -199 200 0
-189 11 200 0
-11 12 0
-189 12 0
-12 11 189 0
-201 -21 21 0
-201 21 -21 0
201 21 21 0
201 -21 -21 0
-211 201 0
-202 -22 22 0
-202 22 -22 0
202 22 22 0
202 -22 -22 0
-211 202 0
-203 -23 23 0
-203 23 -23 0
203 23 23 0
203 -23 -23 0
-211 203 0
-204 -24 24 0
-204 24 -24 0
204 24 24 0
204 -24 -24 0
-211 204 0
-205 -25 25 0
-205 25 -25 0
205 25 25 0
205 -25 -25 0
-211 205 0
-206 -26 26 0
-206 26 -26 0
206 26 26 0
206 -26 -26 0
-211 206 0
-207 -27 27 0
-207 27 -27 0
207 27 27 0
207 -27 -27 0
-211 207 0
-208 -28 28 0
-208 28 -28 0
208 28 28 0
208 -28 -28 0
-211 208 0
-209 -29 29 0
-209 29 -29 0
209 29 29 0
209 -29 -29 0
-211 209 0
-210 -30 30 0
-210 30 -30 0
210 30 30 0
210 -30 -30 0
-211 210 0
-201 -202 -203 -204 -205 -206 -207 -208 -209 -210 211 0
-212 -31 31 0
-212 31 -31 0
212 31 31 0
212 -31 -31 0
-222 212 0
-213 -32 32 0
-213 32 -32 0
213 32 32 0
213 -32 -32 0
-222 213 0
-214 -33 33 0
-214 33 -33 0
214 33 33 0
214 -33 -33 0
-222 214 0
-215 -34 34 0
-215 34 -34 0
215 34 34 0
215 -34 -34 0
-222 215 0
-216 -35 35 0
-216 35 -35 0
216 35 35 0
216 -35 -35 0
-222 216 0
-217 -36 36 0
-217 36 -36 0
217 36 36 0
217 -36 -36 0
-222 217 0
-218 -37 37 0
-218 37 -37 0
218 37 37 0
218 -37 -37 0
-222 218 0
-219 -38 38 0
-219 38 -38 0
219 38 38 0
219 -38 -38 0
-222 219 0
-220 -39 39 0
-220 39 -39 0
220 39 39 0
220 -39 -39 0
-222 220 0
-221 -40 40 0
-221 40 -40 0
221 40 40 0
221 -40 -40 0
-222 221 0
-212 -213 -214 -215 -216 -217 -218 -219 -220 -221 222 0
-211 134 222 0
-134 13 0
-211 13 0
-13 134 211 0
-223 -1 21 0
-223 1 -21 0
223 1 21 0
223 -1 -21 0
-233 223 0
-224 -2 22 0
-224 2 -22 0
224 2 22 0
224 -2 -22 0
-233 224 0
-225 -3 23 0
-225 3 -23 0
225 3 23 0
225 -3 -23 0
-233 225 0
-226 -4 24 0
-226 4 -24 0
226 4 24 0
226 -4 -24 0
-233 226 0
-227 -5 25 0
-227 5 -25 0
227 5 25 0
227 -5 -25 0
-233 227 0
-228 -6 26 0
-228 6 -26 0
228 6 26 0
228 -6 -26 0
-233 228 0
-229 -7 27 0
-229 7 -27 0
229 7 27 0
229 -7 -27 0
-233 229 0
-230 -8 28 0
-230 8 -28 0
230 8 28 0
230 -8 -28 0
-233 230 0
-231 -9 29 0
-231 9 -29 0
231 9 29 0
231 -9 -29 0
-233 231 0
-232 -10 30 0
-232 10 -30 0
232 10 30 0
232 -10 -30 0
-233 232 0
-223 -224 -225 -226 -227 -228 -229 -230 -231 -232 233 0
-234 -21 31 0
-234 21 -31 0
234 21 31 0
234 -21 -31 0
-244 234 0
-235 -22 32 0
-235 22 -32 0
235 22 32 0
235 -22 -32 0
-244 235 0
-236 -23 33 0
-236 23 -33 0
236 23 33 0
236 -23 -33 0
-244 236 0
-237 -24 34 0
-237 24 -34 0
237 24 34 0
237 -24 -34 0
-244 237 0
-238 -25 35 0
-238 25 -35 0
238 25 35 0
238 -25 -35 0
-244 238 0
-239 -26 36 0
-239 26 -36 0
239 26 36 0
239 -26 -36 0
-244 239 0
-240 -27 37 0
-240 27 -37 0
240 27 37 0
240 -27 -37 0
-244 240 0
-241 -28 38 0
-241 28 -38 0
241 28 38 0
241 -28 -38 0
-244 241 0
-242 -29 39 0
-242 29 -39 0
242 29 39 0
242 -29 -39 0
-244 242 0
-243 -30 40 0
-243 30 -40 0
243 30 40 0
243 -30 -40 0
-244 243 0
-234 -235 -236 -237 -238 -239 -240 -241 -242 -243 244 0
-233 13 244 0
-13 14 0
-233 14 0
-14 13 233 0
-245 -21 1 0
-245 21 -1 0
245 21 1 0
245 -21 -1 0
-255 245 0
-246 -22 2 0
-246 22 -2 0
246 22 2 0
246 -22 -2 0
-255 246 0
-247 -23 3 0
-247 23 -3 0
247 23 3 0
247 -23 -3 0
-255 247 0
-248 -24 4 0
-248 24 -4 0
248 24 4 0
248 -24 -4 0
-255 248 0
-249 -25 5 0
-249 25 -5 0
249 25 5 0
249 -25 -5 0
-255 249 0
-250 -26 6 0
-250 26 -6 0
250 26 6 0
250 -26 -6 0
-255 250 0
-251 -27 7 0
-251 27 -7 0
251 27 7 0
251 -27 -7 0
-255 251 0
-252 -28 8 0
-252 28 -8 0
252 28 8 0
252 -28 -8 0
-255 252 0
-253 -29 9 0
-253 29 -9 0
253 29 9 0
253 -29 -9 0
-255 253 0
-254 -30 10 0
-254 30 -10 0
254 30 10 0
254 -30 -10 0
-255 254 0
-245 -246 -247 -248 -249 -250 -251 -252 -253 -254 255 0
-256 -31 31 0
-256 31 -31 0
256 31 31 0
256 -31 -31 0
-266 256 0
-257 -32 32 0
-257 32 -32 0
257 32 32 0
257 -32 -32 0
-266 257 0
-258 -33 33 0
-258 33 -33 0
258 33 33 0
258 -33 -33 0
-266 258 0
-259 -34 34 0
-259 34 -34 0
259 34 34 0
259 -34 -34 0
-266 259 0
-260 -35 35 0
-260 35 -35 0
260 35 35 0
260 -35 -35 0
-266 260 0
-261 -36 36 0
-261 36 -36 0
261 36 36 0
261 -36 -36 0
-266 261 0
-262 -37 37 0
-262 37 -37 0
262 37 37 0
262 -37 -37 0
-266 262 0
-263 -38 38 0
-263 38 -38 0
263 38 38 0
263 -38 -38 0
-266 263 0
-264 -39 39 0
-264 39 -39 0
264 39 39 0
264 -39 -39 0
-266 264 0
-265 -40 40 0
-265 40 -40 0
265 40 40 0
265 -40 -40 0
-266 265 0
-256 -257 -258 -259 -260 -261 -262 -263 -264 -265 266 0
-255 134 266 0
-134 15 0
-255 15 0
-15 134 255 0
-267 -1 1 0
-267 1 -1 0
267 1 1 0
267 -1 -1 0
-277 267 0
-268 -2 2 0
-268 2 -2 0
268 2 2 0
268 -2 -2 0
-277 268 0
-269 -3 3 0
-269 3 -3 0
269 3 3 0
269 -3 -3 0
-277 269 0
-270 -4 4 0
-270 4 -4 0
270 4 4 0
270 -4 -4 0
-277 270 0
-271 -5 5 0
-271 5 -5 0
271 5 5 0
271 -5 -5 0
-277 271 0
-272 -6 6 0
-272 6 -6 0
272 6 6 0
272 -6 -6 0
-277 272 0
-273 -7 7 0
-273 7 -7 0
273 7 7 0
273 -7 -7 0
-277 273 0
-274 -8 8 0
-274 8 -8 0
274 8 8 0
274 -8 -8 0
-277 274 0
-275 -9 9 0
-275 9 -9 0
275 9 9 0
275 -9 -9 0
-277 275 0
-276 -10 10 0
-276 10 -10 0
276 10 10 0
276 -10 -10 0
-277 276 0
-267 -268 -269 -270 -271 -272 -273 -274 -275 -276 277 0
-278 -21 31 0
-278 21 -31 0
278 21 31 0
278 -21 -31 0
-288 278 0
-279 -22 32 0
-279 22 -32 0
279 22 32 0
279 -22 -32 0
-288 279 0
-280 -23 33 0
-280 23 -33 0
280 23 33 0
280 -23 -33 0
-288 280 0
-281 -24 34 0
-281 24 -34 0
281 24 34 0
281 -24 -34 0
-288 281 0
-282 -25 35 0
-282 25 -35 0
282 25 35 0
282 -25 -35 0
-288 282 0
-283 -26 36 0
-283 26 -36 0
283 26 36 0
283 -26 -36 0
-288 283 0
-284 -27 37 0
-284 27 -37 0
284 27 37 0
284 -27 -37 0
-288 284 0
-285 -28 38 0
-285 28 -38 0
285 28 38 0
285 -28 -38 0
-288 285 0
-286 -29 39 0
-286 29 -39 0
286 29 39 0
286 -29 -39 0
-288 286 0
-287 -30 40 0
-287 30 -40 0
287 30 40 0
287 -30 -40 0
-288 287 0
-278 -279 -280 -281 -282 -283 -284 -285 -286 -287 288 0
-277 15 288 0
-15 16 0
-277 16 0
-16 15 277 0
-289 -41 31 0
-289 41 -31 0
289 41 31 0
289 -41 -31 0
-299 289 0
-290 -42 32 0
-290 42 -32 0
290 42 32 0
290 -42 -32 0
-299 290 0
-291 -43 33 0
-291 43 -33 0
291 43 33 0
291 -43 -33 0
-299 291 0
-292 -44 34 0
-292 44 -34 0
292 44 34 0
292 -44 -34 0
-299 292 0
-293 -45 35 0
-293 45 -35 0
293 45 35 0
293 -45 -35 0
-299 293 0
-294 -46 36 0
-294 46 -36 0
294 46 36 0
294 -46 -36 0
-299 294 0
-295 -47 37 0
-295 47 -37 0
295 47 37 0
295 -47 -37 0
-299 295 0
-296 -48 38 0
-296 48 -38 0
296 48 38 0
296 -48 -38 0
-299 296 0
-297 -49 39 0
-297 49 -39 0
297 49 39 0
297 -49 -39 0
-299 297 0
-298 -50 40 0
-298 50 -40 0
298 50 40 0
298 -50 -40 0
-299 298 0
-289 -290 -291 -292 -293 -294 -295 -296 -297 -298 299 0
-300 -21 21 0
-300 21 -21 0
300 21 21 0
300 -21 -21 0
-310 300 0
-301 -22 22 0
-301 22 -22 0
301 22 22 0
301 -22 -22 0
-310 301 0
-302 -23 23 0
-302 23 -23 0
302 23 23 0
302 -23 -23 0
-310 302 0
-303 -24 24 0
-303 24 -24 0
303 24 24 0
303 -24 -24 0
-310 303 0
-304 -25 25 0
-304 25 -25 0
304 25 25 0
304 -25 -25 0
-310 304 0
-305 -26 26 0
-305 26 -26 0
305 26 26 0
305 -26 -26 0
-310 305 0
-306 -27 27 0
-306 27 -27 0
306 27 27 0
306 -27 -27 0
-310 306 0
-307 -28 28 0
-307 28 -28 0
307 28 28 0
307 -28 -28 0
-310 307 0
-308 -29 29 0
-308 29 -29 0
308 29 29 0
308 -29 -29 0
-310 308 0
-309 -30 30 0
-309 30 -30 0
309 30 30 0
309 -30 -30 0
-310 309 0
-300 -301 -302 -303 -304 -305 -306 -307 -308 -309 310 0
-299 134 310 0
-134 17 0
-299 17 0
-17 134 299 0
-311 -21 31 0
-311 21 -31 0
311 21 31 0
311 -21 -31 0
-321 311 0
-312 -22 32 0
-312 22 -32 0
312 22 32 0
312 -22 -32 0
-321 312 0
-313 -23 33 0
-313 23 -33 0
313 23 33 0
313 -23 -33 0
-321 313 0
-314 -24 34 0
-314 24 -34 0
314 24 34 0
314 -24 -34 0
-321 314 0
-315 -25 35 0
-315 25 -35 0
315 25 35 0
315 -25 -35 0
-321 315 0
-316 -26 36 0
-316 26 -36 0
316 26 36 0
316 -26 -36 0
-321 316 0
-317 -27 37 0
-317 27 -37 0
317 27 37 0
317 -27 -37 0
-321 317 0
-318 -28 38 0
-318 28 -38 0
318 28 38 0
318 -28 -38 0
-321 318 0
-319 -29 39 0
-319 29 -39 0
319 29 39 0
319 -29 -39 0
-321 319 0
-320 -30 40 0
-320 30 -40 0
320 30 40 0
320 -30 -40 0
-321 320 0
-311 -312 -313 -314 -315 -316 -317 -318 -319 -320 321 0
-322 -31 21 0
-322 31 -21 0
322 31 21 0
322 -31 -21 0
-332 322 0
-323 -32 22 0
-323 32 -22 0
323 32 22 0
323 -32 -22 0
-332 323 0
-324 -33 23 0
-324 33 -23 0
324 33 23 0
324 -33 -23 0
-332 324 0
-325 -34 24 0
-325 34 -24 0
325 34 24 0
325 -34 -24 0
-332 325 0
-326 -35 25 0
-326 35 -25 0
326 35 25 0
326 -35 -25 0
-332 326 0
-327 -36 26 0
-327 36 -26 0
327 36 26 0
327 -36 -26 0
-332 327 0
-328 -37 27 0
-328 37 -27 0
328 37 27 0
328 -37 -27 0
-332 328 0
-329 -38 28 0
-329 38 -28 0
329 38 28 0
329 -38 -28 0
-332 329 0
-330 -39 29 0
-330 39 -29 0
330 39 29 0
330 -39 -29 0
-332 330 0
-331 -40 30 0
-331 40 -30 0
331 40 30 0
331 -40 -30 0
-332 331 0
-322 -323 -324 -325 -326 -327 -328 -329 -330 -331 332 0
-321 17 332 0
-17 18 0
-321 18 0
-18 17 321 0
-333 -1 31 0
-333 1 -31 0
333 1 31 0
333 -1 -31 0
-343 333 0
-334 -2 32 0
-334 2 -32 0
334 2 32 0
334 -2 -32 0
-343 334 0
-335 -3 33 0
-335 3 -33 0
335 3 33 0
335 -3 -33 0
-343 335 0
-336 -4 34 0
-336 4 -34 0
336 4 34 0
336 -4 -34 0
-343 336 0
-337 -5 35 0
-337 5 -35 0
337 5 35 0
337 -5 -35 0
-343 337 0
-338 -6 36 0
-338 6 -36 0
338 6 36 0
338 -6 -36 0
-343 338 0
-339 -7 37 0
-339 7 -37 0
339 7 37 0
339 -7 -37 0
-343 339 0
-340 -8 38 0
-340 8 -38 0
340 8 38 0
340 -8 -38 0
-343 340 0
-341 -9 39 0
-341 9 -39 0
341 9 39 0
341 -9 -39 0
-343 341 0
-342 -10 40 0
-342 10 -40 0
342 10 40 0
342 -10 -40 0
-343 342 0
-333 -334 -335 -336 -337 -338 -339 -340 -341 -342 343 0
-344 -21 21 0
-344 21 -21 0
344 21 21 0
344 -21 -21 0
-354 344 0
-345 -22 22 0
-345 22 -22 0
345 22 22 0
345 -22 -22 0
-354 345 0
-346 -23 23 0
-346 23 -23 0
346 23 23 0
346 -23 -23 0
-354 346 0
-347 -24 24 0
-347 24 -24 0
347 24 24 0
347 -24 -24 0
-354 347 0
-348 -25 25 0
-348 25 -25 0
348 25 25 0
348 -25 -25 0
-354 348 0
-349 -26 26 0
-349 26 -26 0
349 26 26 0
349 -26 -26 0
-354 349 0
-350 -27 27 0
-350 27 -27 0
350 27 27 0
350 -27 -27 0
-354 350 0
-351 -28 28 0
-351 28 -28 0
351 28 28 0
351 -28 -28 0
-354 351 0
-352 -29 29 0
-352 29 -29 0
352 29 29 0
352 -29 -29 0
-354 352 0
-353 -30 30 0
-353 30 -30 0
353 30 30 0
353 -30 -30 0
-354 353 0
-344 -345 -346 -347 -348 -349 -350 -351 -352 -353 354 0
-343 18 354 0
-18 19 0
-343 19 0
-19 18 343 0
-355 -41 21 0
-355 41 -21 0
355 41 21 0
355 -41 -21 0
-365 355 0
-356 -42 22 0
-356 42 -22 0
356 42 22 0
356 -42 -22 0
-365 356 0
-357 -43 23 0
-357 43 -23 0
357 43 23 0
357 -43 -23 0
-365 357 0
-358 -44 24 0
-358 44 -24 0
358 44 24 0
358 -44 -24 0
-365 358 0
-359 -45 25 0
-359 45 -25 0
359 45 25 0
359 -45 -25 0
-365 359 0
-360 -46 26 0
-360 46 -26 0
360 46 26 0
360 -46 -26 0
-365 360 0
-361 -47 27 0
-361 47 -27 0
361 47 27 0
361 -47 -27 0
-365 361 0
-362 -48 28 0
-362 48 -28 0
362 48 28 0
362 -48 -28 0
-365 362 0
-363 -49 29 0
-363 49 -29 0
363 49 29 0
363 -49 -29 0
-365 363 0
-364 -50 30 0
-364 50 -30 0
364 50 30 0
364 -50 -30 0
-365 364 0
-355 -356 -357 -358 -359 -360 -361 -362 -363 -364 365 0
-366 -21 21 0
-366 21 -21 0
366 21 21 0
366 -21 -21 0
-376 366 0
-367 -22 22 0
-367 22 -22 0
367 22 22 0
367 -22 -22 0
-376 367 0
-368 -23 23 0
-368 23 -23 0
368 23 23 0
368 -23 -23 0
-376 368 0
-369 -24 24 0
-369 24 -24 0
369 24 24 0
369 -24 -24 0
-376 369 0
-370 -25 25 0
-370 25 -25 0
370 25 25 0
370 -25 -25 0
-376 370 0
-371 -26 26 0
-371 26 -26 0
371 26 26 0
371 -26 -26 0
-376 371 0
-372 -27 27 0
-372 27 -27 0
372 27 27 0
372 -27 -27 0
-376 372 0
-373 -28 28 0
-373 28 -28 0
373 28 28 0
373 -28 -28 0
-376 373 0
-374 -29 29 0
-374 29 -29 0
374 29 29 0
374 -29 -29 0
-376 374 0
-375 -30 30 0
-375 30 -30 0
375 30 30 0
375 -30 -30 0
-376 375 0
-366 -367 -368 -369 -370 -371 -372 -373 -374 -375 376 0
-365 134 376 0
-134 20 0
-365 20 0
-20 134 365 0
-377 -21 21 0
-377 21 -21 0
377 21 21 0
377 -21 -21 0
-387 377 0
-378 -22 22 0
-378 22 -22 0
378 22 22 0
378 -22 -22 0
-387 378 0
-379 -23 23 0
-379 23 -23 0
379 23 23 0
379 -23 -23 0
-387 379 0
-380 -24 24 0
-380 24 -24 0
380 24 24 0
380 -24 -24 0
-387 380 0
-381 -25 25 0
-381 25 -25 0
381 25 25 0
381 -25 -25 0
-387 381 0
-382 -26 26 0
-382 26 -26 0
382 26 26 0
382 -26 -26 0
-387 382 0
-383 -27 27 0
-383 27 -27 0
383 27 27 0
383 -27 -27 0
-387 383 0
-384 -28 28 0
-384 28 -28 0
384 28 28 0
384 -28 -28 0
-387 384 0
-385 -29 29 0
-385 29 -29 0
385 29 29 0
385 -29 -29 0
-387 385 0
-386 -30 30 0
-386 30 -30 0
386 30 30 0
386 -30 -30 0
-387 386 0
-377 -378 -379 -380 -381 -382 -383 -384 -385 -386 387 0
-388 -31 21 0
-388 31 -21 0
388 31 21 0
388 -31 -21 0
-398 388 0
-389 -32 22 0
-389 32 -22 0
389 32 22 0
389 -32 -22 0
-398 389 0
-390 -33 23 0
-390 33 -23 0
390 33 23 0
390 -33 -23 0
-398 390 0
-391 -34 24 0
-391 34 -24 0
391 34 24 0
391 -34 -24 0
-398 391 0
-392 -35 25 0
-392 35 -25 0
392 35 25 0
392 -35 -25 0
-398 392 0
-393 -36 26 0
-393 36 -26 0
393 36 26 0
393 -36 -26 0
-398 393 0
-394 -37 27 0
-394 37 -27 0
394 37 27 0
394 -37 -27 0
-398 394 0
-395 -38 28 0
-395 38 -28 0
395 38 28 0
395 -38 -28 0
-398 395 0
-396 -39 29 0
-396 39 -29 0
396 39 29 0
396 -39 -29 0
-398 396 0
-397 -40 30 0
-397 40 -30 0
397 40 30 0
397 -40 -30 0
-398 397 0
-388 -389 -390 -391 -392 -393 -394 -395 -396 -397 398 0
-387 20 398 0
-20 21 0
-387 21 0
-21 20 387 0
-399 -1 21 0
-399 1 -21 0
399 1 21 0
399 -1 -21 0
-409 399 0
-400 -2 22 0
-400 2 -22 0
400 2 22 0
400 -2 -22 0
-409 400 0
-401 -3 23 0
-401 3 -23 0
401 3 23 0
401 -3 -23 0
-409 401 0
-402 -4 24 0
-402 4 -24 0
402 4 24 0
402 -4 -24 0
-409 402 0
-403 -5 25 0
-403 5 -25 0
403 5 25 0
403 -5 -25 0
-409 403 0
-404 -6 26 0
-404 6 -26 0
404 6 26 0
404 -6 -26 0
-409 404 0
-405 -7 27 0
-405 7 -27 0
405 7 27 0
405 -7 -27 0
-409 405 0
-406 -8 28 0
-406 8 -28 0
406 8 28 0
406 -8 -28 0
-409 406 0
-407 -9 29 0
-407 9 -29 0
407 9 29 0
407 -9 -29 0
-409 407 0
-408 -10 30 0
-408 10 -30 0
408 10 30 0
408 -10 -30 0
-409 408 0
-399 -400 -401 -402 -403 -404 -405 -406 -407 -408 409 0
-410 -21 21 0
-410 21 -21 0
410 21 21 0
410 -21 -21 0
-420 410 0
-411 -22 22 0
-411 22 -22 0
411 22 22 0
411 -22 -22 0
-420 411 0
-412 -23 23 0
-412 23 -23 0
412 23 23 0
412 -23 -23 0
-420 412 0
-413 -24 24 0
-413 24 -24 0
413 24 24 0
413 -24 -24 0
-420 413 0
-414 -25 25 0
-414 25 -25 0
414 25 25 0
414 -25 -25 0
-420 414 0
-415 -26 26 0
-415 26 -26 0
415 26 26 0
415 -26 -26 0
-420 415 0
-416 -27 27 0
-416 27 -27 0
416 27 27 0
416 -27 -27 0
-420 416 0
-417 -28 28 0
-417 28 -28 0
417 28 28 0
417 -28 -28 0
-420 417 0
-418 -29 29 0
-418 29 -29 0
418 29 29 0
418 -29 -29 0
-420 418 0
-419 -30 30 0
-419 30 -30 0
419 30 30 0
419 -30 -30 0
-420 419 0
-410 -411 -412 -413 -414 -415 -416 -417 -418 -419 420 0
-409 21 420 0
-21 22 0
-409 22 0
-22 21 409 0
